
(set-option :produce-models true)
(set-option :inline-size-limit 10000)

(declare-const var0 String)

(push 1)
(assert (str.in.re var0 (re.* (re.range "\x01" "\xff"))))
(assert (str.in.re var0 (re.++ (re.*? re.allchar) (re.++ (re.union (re.++ ((_ re.capture 1) (re.++ ((_ re.capture 2) (re.union (str.to.re "8") (re.++ (str.to.re "+") (str.to.re "7")))) (re.opt (str.to.re "-")))) (re.++ (re.inter (re.diff (re.range "\x01" "\xff") (re.range "a" "z")) (re.inter (re.diff (re.range "\x01" "\xff") (re.range "A" "Z")) (re.inter (re.diff (re.range "\x01" "\xff") (re.range "0" "9")) (re.diff (re.range "\x01" "\xff") (str.to.re "_"))))) (re.++ ((_ re.capture 3) (re.union ((_ re.capture 4) ((_ re.loop 3 5) (re.range "0" "9"))) (re.++ (re.opt (str.to.re "(")) (re.++ ((_ re.loop 3 5) (re.range "0" "9")) (str.to.re ")"))))) (re.++ (re.inter (re.diff (re.range "\x01" "\xff") (re.range "a" "z")) (re.inter (re.diff (re.range "\x01" "\xff") (re.range "A" "Z")) (re.inter (re.diff (re.range "\x01" "\xff") (re.range "0" "9")) (re.diff (re.range "\x01" "\xff") (str.to.re "_"))))) (re.++ ((_ re.loop 0 3) (re.range "0" "9")) (re.++ (re.inter (re.diff (re.range "\x01" "\xff") (re.range "a" "z")) (re.inter (re.diff (re.range "\x01" "\xff") (re.range "A" "Z")) (re.inter (re.diff (re.range "\x01" "\xff") (re.range "0" "9")) (re.diff (re.range "\x01" "\xff") (str.to.re "_"))))) ((_ re.capture 5) (re.union ((_ re.capture 6) (re.++ ((_ re.loop 0 2) (re.range "0" "9")) (re.++ (re.inter (re.diff (re.range "\x01" "\xff") (re.range "a" "z")) (re.inter (re.diff (re.range "\x01" "\xff") (re.range "A" "Z")) (re.inter (re.diff (re.range "\x01" "\xff") (re.range "0" "9")) (re.diff (re.range "\x01" "\xff") (str.to.re "_"))))) ((_ re.loop 0 2) (re.range "0" "9"))))) ((_ re.capture 7) ((_ re.loop 0 4) (re.range "0" "9"))))))))))) ((_ re.capture 8) (re.++ (re.opt ((_ re.capture 9) (re.++ ((_ re.capture 10) (re.union (str.to.re "8") (re.++ (str.to.re "+") (str.to.re "7")))) (re.opt (str.to.re "-"))))) (re.++ (re.opt (str.to.re "(")) (re.++ ((_ re.loop 3 5) (re.range "0" "9")) (re.++ (re.opt (str.to.re ")")) (re.++ (re.opt (str.to.re "-")) (re.++ ((_ re.loop 0 1) (re.range "0" "9")) (re.++ (re.opt (str.to.re "-")) (re.++ ((_ re.loop 0 1) (re.range "0" "9")) (re.++ (re.opt (str.to.re "-")) (re.++ ((_ re.loop 0 1) (re.range "0" "9")) (re.++ (re.opt (str.to.re "-")) (re.++ ((_ re.loop 0 1) (re.range "0" "9")) (re.++ (re.opt (str.to.re "-")) (re.++ ((_ re.loop 0 1) (re.range "0" "9")) (re.opt ((_ re.capture 11) (re.++ (re.opt ((_ re.capture 12) (re.++ (re.opt (str.to.re "-")) ((_ re.loop 0 1) (re.range "0" "9"))))) (re.++ (re.opt (str.to.re "-")) ((_ re.loop 0 1) (re.range "0" "9")))))))))))))))))))))) re.all))))	; match!==null
(assert (not (str.in.re ((_ str.extract 1) var0 (re.++ (re.*? re.allchar) (re.++ (re.union (re.++ ((_ re.capture 1) (re.++ ((_ re.capture 2) (re.union (str.to.re "8") (re.++ (str.to.re "+") (str.to.re "7")))) (re.opt (str.to.re "-")))) (re.++ (re.inter (re.diff (re.range "\x01" "\xff") (re.range "a" "z")) (re.inter (re.diff (re.range "\x01" "\xff") (re.range "A" "Z")) (re.inter (re.diff (re.range "\x01" "\xff") (re.range "0" "9")) (re.diff (re.range "\x01" "\xff") (str.to.re "_"))))) (re.++ ((_ re.capture 3) (re.union ((_ re.capture 4) ((_ re.loop 3 5) (re.range "0" "9"))) (re.++ (re.opt (str.to.re "(")) (re.++ ((_ re.loop 3 5) (re.range "0" "9")) (str.to.re ")"))))) (re.++ (re.inter (re.diff (re.range "\x01" "\xff") (re.range "a" "z")) (re.inter (re.diff (re.range "\x01" "\xff") (re.range "A" "Z")) (re.inter (re.diff (re.range "\x01" "\xff") (re.range "0" "9")) (re.diff (re.range "\x01" "\xff") (str.to.re "_"))))) (re.++ ((_ re.loop 0 3) (re.range "0" "9")) (re.++ (re.inter (re.diff (re.range "\x01" "\xff") (re.range "a" "z")) (re.inter (re.diff (re.range "\x01" "\xff") (re.range "A" "Z")) (re.inter (re.diff (re.range "\x01" "\xff") (re.range "0" "9")) (re.diff (re.range "\x01" "\xff") (str.to.re "_"))))) ((_ re.capture 5) (re.union ((_ re.capture 6) (re.++ ((_ re.loop 0 2) (re.range "0" "9")) (re.++ (re.inter (re.diff (re.range "\x01" "\xff") (re.range "a" "z")) (re.inter (re.diff (re.range "\x01" "\xff") (re.range "A" "Z")) (re.inter (re.diff (re.range "\x01" "\xff") (re.range "0" "9")) (re.diff (re.range "\x01" "\xff") (str.to.re "_"))))) ((_ re.loop 0 2) (re.range "0" "9"))))) ((_ re.capture 7) ((_ re.loop 0 4) (re.range "0" "9"))))))))))) ((_ re.capture 8) (re.++ (re.opt ((_ re.capture 9) (re.++ ((_ re.capture 10) (re.union (str.to.re "8") (re.++ (str.to.re "+") (str.to.re "7")))) (re.opt (str.to.re "-"))))) (re.++ (re.opt (str.to.re "(")) (re.++ ((_ re.loop 3 5) (re.range "0" "9")) (re.++ (re.opt (str.to.re ")")) (re.++ (re.opt (str.to.re "-")) (re.++ ((_ re.loop 0 1) (re.range "0" "9")) (re.++ (re.opt (str.to.re "-")) (re.++ ((_ re.loop 0 1) (re.range "0" "9")) (re.++ (re.opt (str.to.re "-")) (re.++ ((_ re.loop 0 1) (re.range "0" "9")) (re.++ (re.opt (str.to.re "-")) (re.++ ((_ re.loop 0 1) (re.range "0" "9")) (re.++ (re.opt (str.to.re "-")) (re.++ ((_ re.loop 0 1) (re.range "0" "9")) (re.opt ((_ re.capture 11) (re.++ (re.opt ((_ re.capture 12) (re.++ (re.opt (str.to.re "-")) ((_ re.loop 0 1) (re.range "0" "9"))))) (re.++ (re.opt (str.to.re "-")) ((_ re.loop 0 1) (re.range "0" "9")))))))))))))))))))))) re.all))) (str.to.re "\x00"))))
;match[1]!==null
(assert (str.in.re ((_ str.extract 1) var0 (re.++ (re.*? re.allchar) (re.++ (re.union (re.++ ((_ re.capture 1) (re.++ ((_ re.capture 2) (re.union (str.to.re "8") (re.++ (str.to.re "+") (str.to.re "7")))) (re.opt (str.to.re "-")))) (re.++ (re.inter (re.diff (re.range "\x01" "\xff") (re.range "a" "z")) (re.inter (re.diff (re.range "\x01" "\xff") (re.range "A" "Z")) (re.inter (re.diff (re.range "\x01" "\xff") (re.range "0" "9")) (re.diff (re.range "\x01" "\xff") (str.to.re "_"))))) (re.++ ((_ re.capture 3) (re.union ((_ re.capture 4) ((_ re.loop 3 5) (re.range "0" "9"))) (re.++ (re.opt (str.to.re "(")) (re.++ ((_ re.loop 3 5) (re.range "0" "9")) (str.to.re ")"))))) (re.++ (re.inter (re.diff (re.range "\x01" "\xff") (re.range "a" "z")) (re.inter (re.diff (re.range "\x01" "\xff") (re.range "A" "Z")) (re.inter (re.diff (re.range "\x01" "\xff") (re.range "0" "9")) (re.diff (re.range "\x01" "\xff") (str.to.re "_"))))) (re.++ ((_ re.loop 0 3) (re.range "0" "9")) (re.++ (re.inter (re.diff (re.range "\x01" "\xff") (re.range "a" "z")) (re.inter (re.diff (re.range "\x01" "\xff") (re.range "A" "Z")) (re.inter (re.diff (re.range "\x01" "\xff") (re.range "0" "9")) (re.diff (re.range "\x01" "\xff") (str.to.re "_"))))) ((_ re.capture 5) (re.union ((_ re.capture 6) (re.++ ((_ re.loop 0 2) (re.range "0" "9")) (re.++ (re.inter (re.diff (re.range "\x01" "\xff") (re.range "a" "z")) (re.inter (re.diff (re.range "\x01" "\xff") (re.range "A" "Z")) (re.inter (re.diff (re.range "\x01" "\xff") (re.range "0" "9")) (re.diff (re.range "\x01" "\xff") (str.to.re "_"))))) ((_ re.loop 0 2) (re.range "0" "9"))))) ((_ re.capture 7) ((_ re.loop 0 4) (re.range "0" "9"))))))))))) ((_ re.capture 8) (re.++ (re.opt ((_ re.capture 9) (re.++ ((_ re.capture 10) (re.union (str.to.re "8") (re.++ (str.to.re "+") (str.to.re "7")))) (re.opt (str.to.re "-"))))) (re.++ (re.opt (str.to.re "(")) (re.++ ((_ re.loop 3 5) (re.range "0" "9")) (re.++ (re.opt (str.to.re ")")) (re.++ (re.opt (str.to.re "-")) (re.++ ((_ re.loop 0 1) (re.range "0" "9")) (re.++ (re.opt (str.to.re "-")) (re.++ ((_ re.loop 0 1) (re.range "0" "9")) (re.++ (re.opt (str.to.re "-")) (re.++ ((_ re.loop 0 1) (re.range "0" "9")) (re.++ (re.opt (str.to.re "-")) (re.++ ((_ re.loop 0 1) (re.range "0" "9")) (re.++ (re.opt (str.to.re "-")) (re.++ ((_ re.loop 0 1) (re.range "0" "9")) (re.opt ((_ re.capture 11) (re.++ (re.opt ((_ re.capture 12) (re.++ (re.opt (str.to.re "-")) ((_ re.loop 0 1) (re.range "0" "9"))))) (re.++ (re.opt (str.to.re "-")) ((_ re.loop 0 1) (re.range "0" "9")))))))))))))))))))))) re.all))) (re.++ re.all(re.+ (re.range "a" "z")) re.all) ))
;/[a-z]+/.test(match[1]) == true
(check-sat)
(get-model)
(pop 1)
(push 1)
(assert (str.in.re var0 (re.* (re.range "\x01" "\xff"))))
(assert (str.in.re var0 (re.++ (re.*? re.allchar) (re.++ (re.union (re.++ ((_ re.capture 1) (re.++ ((_ re.capture 2) (re.union (str.to.re "8") (re.++ (str.to.re "+") (str.to.re "7")))) (re.opt (str.to.re "-")))) (re.++ (re.inter (re.diff (re.range "\x01" "\xff") (re.range "a" "z")) (re.inter (re.diff (re.range "\x01" "\xff") (re.range "A" "Z")) (re.inter (re.diff (re.range "\x01" "\xff") (re.range "0" "9")) (re.diff (re.range "\x01" "\xff") (str.to.re "_"))))) (re.++ ((_ re.capture 3) (re.union ((_ re.capture 4) ((_ re.loop 3 5) (re.range "0" "9"))) (re.++ (re.opt (str.to.re "(")) (re.++ ((_ re.loop 3 5) (re.range "0" "9")) (str.to.re ")"))))) (re.++ (re.inter (re.diff (re.range "\x01" "\xff") (re.range "a" "z")) (re.inter (re.diff (re.range "\x01" "\xff") (re.range "A" "Z")) (re.inter (re.diff (re.range "\x01" "\xff") (re.range "0" "9")) (re.diff (re.range "\x01" "\xff") (str.to.re "_"))))) (re.++ ((_ re.loop 0 3) (re.range "0" "9")) (re.++ (re.inter (re.diff (re.range "\x01" "\xff") (re.range "a" "z")) (re.inter (re.diff (re.range "\x01" "\xff") (re.range "A" "Z")) (re.inter (re.diff (re.range "\x01" "\xff") (re.range "0" "9")) (re.diff (re.range "\x01" "\xff") (str.to.re "_"))))) ((_ re.capture 5) (re.union ((_ re.capture 6) (re.++ ((_ re.loop 0 2) (re.range "0" "9")) (re.++ (re.inter (re.diff (re.range "\x01" "\xff") (re.range "a" "z")) (re.inter (re.diff (re.range "\x01" "\xff") (re.range "A" "Z")) (re.inter (re.diff (re.range "\x01" "\xff") (re.range "0" "9")) (re.diff (re.range "\x01" "\xff") (str.to.re "_"))))) ((_ re.loop 0 2) (re.range "0" "9"))))) ((_ re.capture 7) ((_ re.loop 0 4) (re.range "0" "9"))))))))))) ((_ re.capture 8) (re.++ (re.opt ((_ re.capture 9) (re.++ ((_ re.capture 10) (re.union (str.to.re "8") (re.++ (str.to.re "+") (str.to.re "7")))) (re.opt (str.to.re "-"))))) (re.++ (re.opt (str.to.re "(")) (re.++ ((_ re.loop 3 5) (re.range "0" "9")) (re.++ (re.opt (str.to.re ")")) (re.++ (re.opt (str.to.re "-")) (re.++ ((_ re.loop 0 1) (re.range "0" "9")) (re.++ (re.opt (str.to.re "-")) (re.++ ((_ re.loop 0 1) (re.range "0" "9")) (re.++ (re.opt (str.to.re "-")) (re.++ ((_ re.loop 0 1) (re.range "0" "9")) (re.++ (re.opt (str.to.re "-")) (re.++ ((_ re.loop 0 1) (re.range "0" "9")) (re.++ (re.opt (str.to.re "-")) (re.++ ((_ re.loop 0 1) (re.range "0" "9")) (re.opt ((_ re.capture 11) (re.++ (re.opt ((_ re.capture 12) (re.++ (re.opt (str.to.re "-")) ((_ re.loop 0 1) (re.range "0" "9"))))) (re.++ (re.opt (str.to.re "-")) ((_ re.loop 0 1) (re.range "0" "9")))))))))))))))))))))) re.all))))	; match!==null
(assert (not (str.in.re ((_ str.extract 1) var0 (re.++ (re.*? re.allchar) (re.++ (re.union (re.++ ((_ re.capture 1) (re.++ ((_ re.capture 2) (re.union (str.to.re "8") (re.++ (str.to.re "+") (str.to.re "7")))) (re.opt (str.to.re "-")))) (re.++ (re.inter (re.diff (re.range "\x01" "\xff") (re.range "a" "z")) (re.inter (re.diff (re.range "\x01" "\xff") (re.range "A" "Z")) (re.inter (re.diff (re.range "\x01" "\xff") (re.range "0" "9")) (re.diff (re.range "\x01" "\xff") (str.to.re "_"))))) (re.++ ((_ re.capture 3) (re.union ((_ re.capture 4) ((_ re.loop 3 5) (re.range "0" "9"))) (re.++ (re.opt (str.to.re "(")) (re.++ ((_ re.loop 3 5) (re.range "0" "9")) (str.to.re ")"))))) (re.++ (re.inter (re.diff (re.range "\x01" "\xff") (re.range "a" "z")) (re.inter (re.diff (re.range "\x01" "\xff") (re.range "A" "Z")) (re.inter (re.diff (re.range "\x01" "\xff") (re.range "0" "9")) (re.diff (re.range "\x01" "\xff") (str.to.re "_"))))) (re.++ ((_ re.loop 0 3) (re.range "0" "9")) (re.++ (re.inter (re.diff (re.range "\x01" "\xff") (re.range "a" "z")) (re.inter (re.diff (re.range "\x01" "\xff") (re.range "A" "Z")) (re.inter (re.diff (re.range "\x01" "\xff") (re.range "0" "9")) (re.diff (re.range "\x01" "\xff") (str.to.re "_"))))) ((_ re.capture 5) (re.union ((_ re.capture 6) (re.++ ((_ re.loop 0 2) (re.range "0" "9")) (re.++ (re.inter (re.diff (re.range "\x01" "\xff") (re.range "a" "z")) (re.inter (re.diff (re.range "\x01" "\xff") (re.range "A" "Z")) (re.inter (re.diff (re.range "\x01" "\xff") (re.range "0" "9")) (re.diff (re.range "\x01" "\xff") (str.to.re "_"))))) ((_ re.loop 0 2) (re.range "0" "9"))))) ((_ re.capture 7) ((_ re.loop 0 4) (re.range "0" "9"))))))))))) ((_ re.capture 8) (re.++ (re.opt ((_ re.capture 9) (re.++ ((_ re.capture 10) (re.union (str.to.re "8") (re.++ (str.to.re "+") (str.to.re "7")))) (re.opt (str.to.re "-"))))) (re.++ (re.opt (str.to.re "(")) (re.++ ((_ re.loop 3 5) (re.range "0" "9")) (re.++ (re.opt (str.to.re ")")) (re.++ (re.opt (str.to.re "-")) (re.++ ((_ re.loop 0 1) (re.range "0" "9")) (re.++ (re.opt (str.to.re "-")) (re.++ ((_ re.loop 0 1) (re.range "0" "9")) (re.++ (re.opt (str.to.re "-")) (re.++ ((_ re.loop 0 1) (re.range "0" "9")) (re.++ (re.opt (str.to.re "-")) (re.++ ((_ re.loop 0 1) (re.range "0" "9")) (re.++ (re.opt (str.to.re "-")) (re.++ ((_ re.loop 0 1) (re.range "0" "9")) (re.opt ((_ re.capture 11) (re.++ (re.opt ((_ re.capture 12) (re.++ (re.opt (str.to.re "-")) ((_ re.loop 0 1) (re.range "0" "9"))))) (re.++ (re.opt (str.to.re "-")) ((_ re.loop 0 1) (re.range "0" "9")))))))))))))))))))))) re.all))) (str.to.re "\x00"))))	
;match[1]!==null
(assert (not (str.in.re ((_ str.extract 1) var0 (re.++ (re.*? re.allchar) (re.++ (re.union (re.++ ((_ re.capture 1) (re.++ ((_ re.capture 2) (re.union (str.to.re "8") (re.++ (str.to.re "+") (str.to.re "7")))) (re.opt (str.to.re "-")))) (re.++ (re.inter (re.diff (re.range "\x01" "\xff") (re.range "a" "z")) (re.inter (re.diff (re.range "\x01" "\xff") (re.range "A" "Z")) (re.inter (re.diff (re.range "\x01" "\xff") (re.range "0" "9")) (re.diff (re.range "\x01" "\xff") (str.to.re "_"))))) (re.++ ((_ re.capture 3) (re.union ((_ re.capture 4) ((_ re.loop 3 5) (re.range "0" "9"))) (re.++ (re.opt (str.to.re "(")) (re.++ ((_ re.loop 3 5) (re.range "0" "9")) (str.to.re ")"))))) (re.++ (re.inter (re.diff (re.range "\x01" "\xff") (re.range "a" "z")) (re.inter (re.diff (re.range "\x01" "\xff") (re.range "A" "Z")) (re.inter (re.diff (re.range "\x01" "\xff") (re.range "0" "9")) (re.diff (re.range "\x01" "\xff") (str.to.re "_"))))) (re.++ ((_ re.loop 0 3) (re.range "0" "9")) (re.++ (re.inter (re.diff (re.range "\x01" "\xff") (re.range "a" "z")) (re.inter (re.diff (re.range "\x01" "\xff") (re.range "A" "Z")) (re.inter (re.diff (re.range "\x01" "\xff") (re.range "0" "9")) (re.diff (re.range "\x01" "\xff") (str.to.re "_"))))) ((_ re.capture 5) (re.union ((_ re.capture 6) (re.++ ((_ re.loop 0 2) (re.range "0" "9")) (re.++ (re.inter (re.diff (re.range "\x01" "\xff") (re.range "a" "z")) (re.inter (re.diff (re.range "\x01" "\xff") (re.range "A" "Z")) (re.inter (re.diff (re.range "\x01" "\xff") (re.range "0" "9")) (re.diff (re.range "\x01" "\xff") (str.to.re "_"))))) ((_ re.loop 0 2) (re.range "0" "9"))))) ((_ re.capture 7) ((_ re.loop 0 4) (re.range "0" "9"))))))))))) ((_ re.capture 8) (re.++ (re.opt ((_ re.capture 9) (re.++ ((_ re.capture 10) (re.union (str.to.re "8") (re.++ (str.to.re "+") (str.to.re "7")))) (re.opt (str.to.re "-"))))) (re.++ (re.opt (str.to.re "(")) (re.++ ((_ re.loop 3 5) (re.range "0" "9")) (re.++ (re.opt (str.to.re ")")) (re.++ (re.opt (str.to.re "-")) (re.++ ((_ re.loop 0 1) (re.range "0" "9")) (re.++ (re.opt (str.to.re "-")) (re.++ ((_ re.loop 0 1) (re.range "0" "9")) (re.++ (re.opt (str.to.re "-")) (re.++ ((_ re.loop 0 1) (re.range "0" "9")) (re.++ (re.opt (str.to.re "-")) (re.++ ((_ re.loop 0 1) (re.range "0" "9")) (re.++ (re.opt (str.to.re "-")) (re.++ ((_ re.loop 0 1) (re.range "0" "9")) (re.opt ((_ re.capture 11) (re.++ (re.opt ((_ re.capture 12) (re.++ (re.opt (str.to.re "-")) ((_ re.loop 0 1) (re.range "0" "9"))))) (re.++ (re.opt (str.to.re "-")) ((_ re.loop 0 1) (re.range "0" "9")))))))))))))))))))))) re.all))) (re.++ re.all(re.+ (re.range "a" "z")) re.all) )))
;/[a-z]+/.test(match[1]) == false	
(check-sat)
(get-model)
(pop 1)
(push 1)
(assert (str.in.re var0 (re.* (re.range "\x01" "\xff"))))
(assert (str.in.re var0 (re.++ (re.*? re.allchar) (re.++ (re.union (re.++ ((_ re.capture 1) (re.++ ((_ re.capture 2) (re.union (str.to.re "8") (re.++ (str.to.re "+") (str.to.re "7")))) (re.opt (str.to.re "-")))) (re.++ (re.inter (re.diff (re.range "\x01" "\xff") (re.range "a" "z")) (re.inter (re.diff (re.range "\x01" "\xff") (re.range "A" "Z")) (re.inter (re.diff (re.range "\x01" "\xff") (re.range "0" "9")) (re.diff (re.range "\x01" "\xff") (str.to.re "_"))))) (re.++ ((_ re.capture 3) (re.union ((_ re.capture 4) ((_ re.loop 3 5) (re.range "0" "9"))) (re.++ (re.opt (str.to.re "(")) (re.++ ((_ re.loop 3 5) (re.range "0" "9")) (str.to.re ")"))))) (re.++ (re.inter (re.diff (re.range "\x01" "\xff") (re.range "a" "z")) (re.inter (re.diff (re.range "\x01" "\xff") (re.range "A" "Z")) (re.inter (re.diff (re.range "\x01" "\xff") (re.range "0" "9")) (re.diff (re.range "\x01" "\xff") (str.to.re "_"))))) (re.++ ((_ re.loop 0 3) (re.range "0" "9")) (re.++ (re.inter (re.diff (re.range "\x01" "\xff") (re.range "a" "z")) (re.inter (re.diff (re.range "\x01" "\xff") (re.range "A" "Z")) (re.inter (re.diff (re.range "\x01" "\xff") (re.range "0" "9")) (re.diff (re.range "\x01" "\xff") (str.to.re "_"))))) ((_ re.capture 5) (re.union ((_ re.capture 6) (re.++ ((_ re.loop 0 2) (re.range "0" "9")) (re.++ (re.inter (re.diff (re.range "\x01" "\xff") (re.range "a" "z")) (re.inter (re.diff (re.range "\x01" "\xff") (re.range "A" "Z")) (re.inter (re.diff (re.range "\x01" "\xff") (re.range "0" "9")) (re.diff (re.range "\x01" "\xff") (str.to.re "_"))))) ((_ re.loop 0 2) (re.range "0" "9"))))) ((_ re.capture 7) ((_ re.loop 0 4) (re.range "0" "9"))))))))))) ((_ re.capture 8) (re.++ (re.opt ((_ re.capture 9) (re.++ ((_ re.capture 10) (re.union (str.to.re "8") (re.++ (str.to.re "+") (str.to.re "7")))) (re.opt (str.to.re "-"))))) (re.++ (re.opt (str.to.re "(")) (re.++ ((_ re.loop 3 5) (re.range "0" "9")) (re.++ (re.opt (str.to.re ")")) (re.++ (re.opt (str.to.re "-")) (re.++ ((_ re.loop 0 1) (re.range "0" "9")) (re.++ (re.opt (str.to.re "-")) (re.++ ((_ re.loop 0 1) (re.range "0" "9")) (re.++ (re.opt (str.to.re "-")) (re.++ ((_ re.loop 0 1) (re.range "0" "9")) (re.++ (re.opt (str.to.re "-")) (re.++ ((_ re.loop 0 1) (re.range "0" "9")) (re.++ (re.opt (str.to.re "-")) (re.++ ((_ re.loop 0 1) (re.range "0" "9")) (re.opt ((_ re.capture 11) (re.++ (re.opt ((_ re.capture 12) (re.++ (re.opt (str.to.re "-")) ((_ re.loop 0 1) (re.range "0" "9"))))) (re.++ (re.opt (str.to.re "-")) ((_ re.loop 0 1) (re.range "0" "9")))))))))))))))))))))) re.all))))	; match!==null
(assert (str.in.re ((_ str.extract 1) var0 (re.++ (re.*? re.allchar) (re.++ (re.union (re.++ ((_ re.capture 1) (re.++ ((_ re.capture 2) (re.union (str.to.re "8") (re.++ (str.to.re "+") (str.to.re "7")))) (re.opt (str.to.re "-")))) (re.++ (re.inter (re.diff (re.range "\x01" "\xff") (re.range "a" "z")) (re.inter (re.diff (re.range "\x01" "\xff") (re.range "A" "Z")) (re.inter (re.diff (re.range "\x01" "\xff") (re.range "0" "9")) (re.diff (re.range "\x01" "\xff") (str.to.re "_"))))) (re.++ ((_ re.capture 3) (re.union ((_ re.capture 4) ((_ re.loop 3 5) (re.range "0" "9"))) (re.++ (re.opt (str.to.re "(")) (re.++ ((_ re.loop 3 5) (re.range "0" "9")) (str.to.re ")"))))) (re.++ (re.inter (re.diff (re.range "\x01" "\xff") (re.range "a" "z")) (re.inter (re.diff (re.range "\x01" "\xff") (re.range "A" "Z")) (re.inter (re.diff (re.range "\x01" "\xff") (re.range "0" "9")) (re.diff (re.range "\x01" "\xff") (str.to.re "_"))))) (re.++ ((_ re.loop 0 3) (re.range "0" "9")) (re.++ (re.inter (re.diff (re.range "\x01" "\xff") (re.range "a" "z")) (re.inter (re.diff (re.range "\x01" "\xff") (re.range "A" "Z")) (re.inter (re.diff (re.range "\x01" "\xff") (re.range "0" "9")) (re.diff (re.range "\x01" "\xff") (str.to.re "_"))))) ((_ re.capture 5) (re.union ((_ re.capture 6) (re.++ ((_ re.loop 0 2) (re.range "0" "9")) (re.++ (re.inter (re.diff (re.range "\x01" "\xff") (re.range "a" "z")) (re.inter (re.diff (re.range "\x01" "\xff") (re.range "A" "Z")) (re.inter (re.diff (re.range "\x01" "\xff") (re.range "0" "9")) (re.diff (re.range "\x01" "\xff") (str.to.re "_"))))) ((_ re.loop 0 2) (re.range "0" "9"))))) ((_ re.capture 7) ((_ re.loop 0 4) (re.range "0" "9"))))))))))) ((_ re.capture 8) (re.++ (re.opt ((_ re.capture 9) (re.++ ((_ re.capture 10) (re.union (str.to.re "8") (re.++ (str.to.re "+") (str.to.re "7")))) (re.opt (str.to.re "-"))))) (re.++ (re.opt (str.to.re "(")) (re.++ ((_ re.loop 3 5) (re.range "0" "9")) (re.++ (re.opt (str.to.re ")")) (re.++ (re.opt (str.to.re "-")) (re.++ ((_ re.loop 0 1) (re.range "0" "9")) (re.++ (re.opt (str.to.re "-")) (re.++ ((_ re.loop 0 1) (re.range "0" "9")) (re.++ (re.opt (str.to.re "-")) (re.++ ((_ re.loop 0 1) (re.range "0" "9")) (re.++ (re.opt (str.to.re "-")) (re.++ ((_ re.loop 0 1) (re.range "0" "9")) (re.++ (re.opt (str.to.re "-")) (re.++ ((_ re.loop 0 1) (re.range "0" "9")) (re.opt ((_ re.capture 11) (re.++ (re.opt ((_ re.capture 12) (re.++ (re.opt (str.to.re "-")) ((_ re.loop 0 1) (re.range "0" "9"))))) (re.++ (re.opt (str.to.re "-")) ((_ re.loop 0 1) (re.range "0" "9")))))))))))))))))))))) re.all))) (str.to.re "\x00")))
;match[1]==null
(check-sat)
(get-model)
(pop 1)
(push 1)
(assert (str.in.re var0 (re.* (re.range "\x01" "\xff"))))
(assert (not (str.in.re var0 (re.++ (re.*? re.allchar) (re.++ (re.union (re.++ ((_ re.capture 1) (re.++ ((_ re.capture 2) (re.union (str.to.re "8") (re.++ (str.to.re "+") (str.to.re "7")))) (re.opt (str.to.re "-")))) (re.++ (re.inter (re.diff (re.range "\x01" "\xff") (re.range "a" "z")) (re.inter (re.diff (re.range "\x01" "\xff") (re.range "A" "Z")) (re.inter (re.diff (re.range "\x01" "\xff") (re.range "0" "9")) (re.diff (re.range "\x01" "\xff") (str.to.re "_"))))) (re.++ ((_ re.capture 3) (re.union ((_ re.capture 4) ((_ re.loop 3 5) (re.range "0" "9"))) (re.++ (re.opt (str.to.re "(")) (re.++ ((_ re.loop 3 5) (re.range "0" "9")) (str.to.re ")"))))) (re.++ (re.inter (re.diff (re.range "\x01" "\xff") (re.range "a" "z")) (re.inter (re.diff (re.range "\x01" "\xff") (re.range "A" "Z")) (re.inter (re.diff (re.range "\x01" "\xff") (re.range "0" "9")) (re.diff (re.range "\x01" "\xff") (str.to.re "_"))))) (re.++ ((_ re.loop 0 3) (re.range "0" "9")) (re.++ (re.inter (re.diff (re.range "\x01" "\xff") (re.range "a" "z")) (re.inter (re.diff (re.range "\x01" "\xff") (re.range "A" "Z")) (re.inter (re.diff (re.range "\x01" "\xff") (re.range "0" "9")) (re.diff (re.range "\x01" "\xff") (str.to.re "_"))))) ((_ re.capture 5) (re.union ((_ re.capture 6) (re.++ ((_ re.loop 0 2) (re.range "0" "9")) (re.++ (re.inter (re.diff (re.range "\x01" "\xff") (re.range "a" "z")) (re.inter (re.diff (re.range "\x01" "\xff") (re.range "A" "Z")) (re.inter (re.diff (re.range "\x01" "\xff") (re.range "0" "9")) (re.diff (re.range "\x01" "\xff") (str.to.re "_"))))) ((_ re.loop 0 2) (re.range "0" "9"))))) ((_ re.capture 7) ((_ re.loop 0 4) (re.range "0" "9"))))))))))) ((_ re.capture 8) (re.++ (re.opt ((_ re.capture 9) (re.++ ((_ re.capture 10) (re.union (str.to.re "8") (re.++ (str.to.re "+") (str.to.re "7")))) (re.opt (str.to.re "-"))))) (re.++ (re.opt (str.to.re "(")) (re.++ ((_ re.loop 3 5) (re.range "0" "9")) (re.++ (re.opt (str.to.re ")")) (re.++ (re.opt (str.to.re "-")) (re.++ ((_ re.loop 0 1) (re.range "0" "9")) (re.++ (re.opt (str.to.re "-")) (re.++ ((_ re.loop 0 1) (re.range "0" "9")) (re.++ (re.opt (str.to.re "-")) (re.++ ((_ re.loop 0 1) (re.range "0" "9")) (re.++ (re.opt (str.to.re "-")) (re.++ ((_ re.loop 0 1) (re.range "0" "9")) (re.++ (re.opt (str.to.re "-")) (re.++ ((_ re.loop 0 1) (re.range "0" "9")) (re.opt ((_ re.capture 11) (re.++ (re.opt ((_ re.capture 12) (re.++ (re.opt (str.to.re "-")) ((_ re.loop 0 1) (re.range "0" "9"))))) (re.++ (re.opt (str.to.re "-")) ((_ re.loop 0 1) (re.range "0" "9")))))))))))))))))))))) re.all)))))	; match == null
(check-sat)
(get-model)
(pop 1)
(exit)
